instances/generated/generated4.atsp
NAME:generated4.atsp
TYPE:ATSP
COMMENT:generatedFromCode
DIMENSION:4
EDGE_WEIGHT_TYPE:EXPLICIT
EDGE_WEIGHT_FORMAT:FULL_MATRIX
EDGE_WEIGHT_SECTION
0 164 469 423 
436 0 112 371 
455 495 0 168 
169 392 272 0 
EOF