instances/generated/generated4.tsp
NAME:generated4.tsp
TYPE:TSP
COMMENT:generatedFromCode
DIMENSION:4
EDGE_WEIGHT_TYPE:EXPLICIT
EDGE_WEIGHT_FORMAT:FULL_MATRIX
EDGE_WEIGHT_SECTION
0 167 482 176 
167 0 429 382 
482 429 0 406 
176 382 406 0 
EOF